p cnf 50 70
6 -17 -16 0
13 -36 -34 0
-43 -49 36 0
24 -20 42 0
-31 35 25 0
42 -17 33 0
47 -37 -21 0
38 11 -1 0
43 -38 -2 0
-8 29 14 0
11 -16 1 0
-50 -11 -47 0
36 -32 -25 0
-40 -23 22 0
-27 -12 30 0
40 -19 -14 0
-17 -27 4 0
4 -37 6 0
15 -31 -38 0
47 -5 16 0
-32 -39 -29 0
43 -7 -1 0
11 -22 -1 0
-30 -41 6 0
3 -10 -43 0
-16 -2 -24 0
5 18 -8 0
-26 45 39 0
11 37 6 0
17 42 -25 0
-6 19 -21 0
44 41 -30 0
34 9 17 0
16 -20 -41 0
-37 10 41 0
37 -18 6 0
-15 4 -35 0
-44 -2 8 0
25 22 7 0
3 -20 18 0
-40 -35 30 0
4 -47 -16 0
10 6 -22 0
46 42 12 0
-40 24 45 0
-45 -3 -7 0
3 -49 -37 0
-30 20 21 0
-43 -28 -40 0
-18 -47 48 0
x 2 3 -7 8 9 -10 12 17 -19 20 22 -23 24 25 28 30 31 -32 -35 40 -41 -43 -45 46 50 0
x -1 -3 4 5 -6 8 9 -10 11 -13 14 -15 16 -21 -23 -24 -26 27 -29 30 -37 40 -44 -45 46 47 -48 -49 -50 0
x -1 2 3 4 5 7 8 11 -13 -14 -15 -16 -20 21 -22 -31 32 38 39 -40 -43 -44 -45 46 48 0
x -3 -5 -6 7 11 -13 -14 -19 -21 22 -27 -28 30 31 33 -34 40 42 -43 45 -47 48 0
x 2 -4 -5 -8 9 -10 11 12 13 -21 23 24 -25 28 -31 33 -38 -39 40 41 42 -43 -44 -45 -46 47 0
x 3 -4 -6 10 12 13 14 15 -17 -19 -20 21 23 -24 28 -29 32 -34 -36 -37 44 -45 48 -49 0
x -1 3 -8 10 -13 14 -15 -17 19 21 -22 -24 25 -28 29 32 36 38 39 -40 41 -43 47 -48 0
x 2 4 7 9 12 13 15 16 19 -22 24 26 27 28 29 -32 34 35 -36 41 -42 43 44 46 48 49 0
x 3 -4 -7 -8 -9 -13 16 19 20 24 -25 -27 -28 -29 30 -31 33 34 36 -37 -40 -41 -44 45 -46 48 0
x 2 -9 13 -15 16 -17 18 19 -20 22 -23 -26 -27 -29 32 33 37 -38 -43 -46 -48 -50 0
x -1 2 5 9 -11 12 -14 -16 17 -18 -19 -22 23 25 -27 28 34 41 42 -44 45 46 -47 -49 50 0
x 2 4 5 -7 8 9 10 12 13 14 -15 16 -17 20 21 23 25 30 31 34 -39 41 44 -48 -49 50 0
x 1 -2 6 -12 -13 -14 -16 19 -22 -30 31 32 -33 -35 36 -38 -39 41 -42 43 -44 -45 46 50 0
x 2 4 -5 -6 8 -10 13 15 16 -19 -20 -21 -23 -24 25 -26 -27 30 32 -34 -36 -37 38 39 -42 44 -46 50 0
x 1 4 -5 6 7 -9 -10 11 13 -14 -16 17 -19 -21 25 -26 29 30 32 -33 -34 -35 -36 40 41 42 43 -44 45 47 -49 -50 0
x 2 -3 5 8 17 20 -21 22 -23 -24 25 26 27 -28 -30 31 35 -37 39 41 -42 45 49 0
x -2 5 -6 -12 -14 -15 -18 19 21 -22 23 24 -25 26 27 -29 32 -38 -39 -44 -45 -49 50 0
x -2 8 -9 -10 12 13 -14 -15 16 -17 -18 -20 -22 -23 -25 -26 -27 29 31 -33 34 38 -39 42 -45 46 -49 0
x -1 4 5 6 -8 -10 13 -14 -16 17 -18 19 -20 -21 -26 28 29 30 34 35 36 -37 39 42 -43 45 -46 47 0
x -1 4 5 -8 10 -16 -17 22 24 -25 -28 -29 -31 32 47 48 -49 -50 0
